(set-info :smt-lib-version 2.6)
(set-logic SLHV)
(declare-hvar emp IntHeap)
(declare-locvar nil IntLoc)
(declare-datatype pt_record_0 ((Pt_R_0 (loc IntLoc))))
(declare-datatype pt_record_1 ((Pt_R_1 (data Int))))(set-info :source |
Benchmarks from Leonardo de Moura <demoura@csl.sri.com>

This benchmark was automatically translated into SMT-LIB format from
CVC format using CVC Lite
|)
(set-info :category "industrial")
(set-info :status unsat)
(declare-fun x_0 () Int)
(declare-fun x_1 () Int)
(declare-fun x_2 () (Array Int Int))
(declare-fun x_3 () Int)
(declare-fun x_4 () Int)
(declare-fun x_5 () Bool)
(declare-fun x_6 () (Array Int Int))
(declare-fun x_7 () Int)
(declare-fun x_8 () (Array Int Int))
(declare-fun x_9 () Int)
(declare-fun x_10 () Bool)
(declare-fun x_11 () Int)
(declare-fun x_12 () Int)
(declare-fun x_13 () Int)
(declare-fun x_14 () Int)
(declare-fun x_15 () (Array Int Int))
(declare-fun x_16 () Int)
(declare-fun x_17 () Int)
(declare-fun x_18 () Int)
(declare-fun x_19 () Int)
(declare-fun x_20 () Int)
(declare-fun x_21 () (Array Int Int))
(declare-fun x_22 () Int)
(declare-fun x_23 () Bool)
(declare-fun x_24 () Int)
(declare-fun x_25 () Int)
(declare-fun x_26 () Int)
(declare-fun x_27 () Int)
(declare-fun x_28 () (Array Int Int))
(declare-fun x_29 () Int)
(declare-fun x_30 () Int)
(declare-fun x_31 () Int)
(declare-fun x_32 () Int)
(declare-fun x_33 () Int)
(declare-fun x_34 () (Array Int Int))
(declare-fun x_35 () Int)
(declare-fun x_36 () Bool)
(declare-fun x_37 () Int)
(declare-fun x_38 () Int)
(declare-fun x_39 () Int)
(declare-fun x_40 () Int)
(declare-fun x_41 () (Array Int Int))
(declare-fun x_42 () Int)
(declare-fun x_43 () Int)
(declare-fun x_44 () Int)
(declare-fun x_45 () Int)
(declare-fun x_46 () Int)
(declare-fun x_47 () (Array Int Int))
(declare-fun x_48 () Int)
(declare-fun x_49 () Bool)
(declare-fun x_50 () Int)
(declare-fun x_51 () Int)
(declare-fun x_52 () Int)
(declare-fun x_53 () Int)
(declare-fun x_54 () (Array Int Int))
(declare-fun x_55 () Int)
(declare-fun x_56 () Int)
(declare-fun x_57 () Int)
(declare-fun x_58 () Int)
(declare-fun x_59 () Int)
(declare-fun x_60 () (Array Int Int))
(declare-fun x_61 () Int)
(declare-fun x_62 () Bool)
(declare-fun x_63 () Int)
(declare-fun x_64 () Int)
(declare-fun x_65 () Int)
(declare-fun x_66 () Int)
(declare-fun x_67 () (Array Int Int))
(declare-fun x_68 () Int)
(declare-fun x_69 () Int)
(declare-fun x_70 () Int)
(declare-fun x_71 () Int)
(declare-fun x_72 () Int)
(declare-fun x_73 () (Array Int Int))
(declare-fun x_74 () Int)
(declare-fun x_75 () Bool)
(declare-fun x_76 () Int)
(declare-fun x_77 () Int)
(declare-fun x_78 () Int)
(declare-fun x_79 () Int)
(declare-fun x_80 () (Array Int Int))
(declare-fun x_81 () Int)
(declare-fun x_82 () Int)
(declare-fun x_83 () Int)
(declare-fun x_84 () Int)
(declare-fun x_85 () Int)
(declare-fun x_86 () (Array Int Int))
(declare-fun x_87 () Int)
(declare-fun x_88 () Bool)
(declare-fun x_89 () Int)
(declare-fun x_90 () Int)
(declare-fun x_91 () Int)
(declare-fun x_92 () Int)
(declare-fun x_93 () (Array Int Int))
(declare-fun x_94 () Int)
(declare-fun x_95 () Int)
(declare-fun x_96 () Int)
(declare-fun x_97 () Int)
(declare-fun x_98 () Int)
(declare-fun x_99 () (Array Int Int))
(declare-fun x_100 () Int)
(declare-fun x_101 () Bool)
(declare-fun x_102 () Int)
(declare-fun x_103 () Int)
(declare-fun x_104 () Int)
(declare-fun x_105 () Int)
(declare-fun x_106 () (Array Int Int))
(declare-fun x_107 () Int)
(declare-fun x_108 () Int)
(declare-fun x_109 () Int)
(declare-fun x_110 () Int)
(declare-fun x_111 () Int)
(declare-fun x_112 () (Array Int Int))
(declare-fun x_113 () Int)
(declare-fun x_114 () Bool)
(declare-fun x_115 () Int)
(declare-fun x_116 () Int)
(declare-fun x_117 () Int)
(declare-fun x_118 () Int)
(declare-fun x_119 () (Array Int Int))
(declare-fun x_120 () Int)
(declare-fun x_121 () Int)
(declare-fun x_122 () Int)
(declare-fun x_123 () Int)
(declare-fun x_124 () Int)
(declare-fun x_125 () (Array Int Int))
(declare-fun x_126 () Int)
(declare-fun x_127 () Bool)
(declare-fun x_128 () Int)
(declare-fun x_129 () Int)
(declare-fun x_130 () Int)
(declare-fun x_131 () Int)
(declare-fun x_132 () (Array Int Int))
(declare-fun x_133 () Int)
(declare-fun x_134 () Int)
(declare-fun x_135 () Int)
(declare-fun x_136 () Int)
(declare-fun x_137 () Int)
(declare-fun x_138 () (Array Int Int))
(declare-fun x_139 () Int)
(declare-fun x_140 () Bool)
(declare-fun x_141 () Int)
(declare-fun x_142 () Int)
(declare-fun x_143 () Int)
(declare-fun x_144 () Int)
(declare-fun x_145 () (Array Int Int))
(declare-fun x_146 () Int)
(declare-fun x_147 () Int)
(declare-fun x_148 () Int)
(declare-fun x_149 () Int)
(declare-fun x_150 () Int)
(declare-fun x_151 () (Array Int Int))
(declare-fun x_152 () Int)
(declare-fun x_153 () Bool)
(declare-fun x_154 () Int)
(declare-fun x_155 () Int)
(declare-fun x_156 () Int)
(declare-fun x_157 () Int)
(declare-fun x_158 () (Array Int Int))
(declare-fun x_159 () Int)
(declare-fun x_160 () Int)
(declare-fun x_161 () Int)
(declare-fun x_162 () Int)
(declare-fun x_163 () Int)
(declare-fun x_164 () (Array Int Int))
(declare-fun x_165 () Int)
(declare-fun x_166 () Bool)
(declare-fun x_167 () Int)
(declare-fun x_168 () Int)
(declare-fun x_169 () Int)
(declare-fun x_170 () Int)
(declare-fun x_171 () (Array Int Int))
(declare-fun x_172 () Int)
(declare-fun x_173 () Int)
(declare-fun x_174 () Int)
(declare-fun x_175 () Int)
(declare-fun x_176 () Int)
(declare-fun x_177 () (Array Int Int))
(declare-fun x_178 () Int)
(declare-fun x_179 () Bool)
(declare-fun x_180 () Int)
(declare-fun x_181 () Int)
(declare-fun x_182 () Int)
(declare-fun x_183 () Int)
(declare-fun x_184 () (Array Int Int))
(declare-fun x_185 () Int)
(declare-fun x_186 () Int)
(declare-fun x_187 () Int)
(declare-fun x_188 () Int)
(declare-fun x_189 () Int)
(declare-fun x_190 () (Array Int Int))
(declare-fun x_191 () Int)
(declare-fun x_192 () Bool)
(declare-fun x_193 () Int)
(declare-fun x_194 () Int)
(declare-fun x_195 () Int)
(declare-fun x_196 () Int)
(declare-fun x_197 () (Array Int Int))
(declare-fun x_198 () Int)
(declare-fun x_199 () Int)
(declare-fun x_200 () Int)
(declare-fun x_201 () Int)
(declare-fun x_202 () Int)
(declare-fun x_203 () (Array Int Int))
(declare-fun x_204 () Int)
(declare-fun x_205 () Bool)
(declare-fun x_206 () Int)
(declare-fun x_207 () Int)
(declare-fun x_208 () Int)
(declare-fun x_209 () Int)
(declare-fun x_210 () (Array Int Int))
(declare-fun x_211 () Int)
(declare-fun x_212 () Int)
(declare-fun x_213 () Int)
(declare-fun x_214 () Int)
(declare-fun x_215 () Int)
(declare-fun x_216 () (Array Int Int))
(declare-fun x_217 () Int)
(declare-fun x_218 () Bool)
(declare-fun x_219 () Int)
(declare-fun x_220 () Int)
(declare-fun x_221 () Int)
(declare-fun x_222 () Int)
(declare-fun x_223 () (Array Int Int))
(declare-fun x_224 () Int)
(declare-fun x_225 () Int)
(declare-fun x_226 () Int)
(declare-fun x_227 () Int)
(declare-fun x_228 () Int)
(declare-fun x_229 () (Array Int Int))
(declare-fun x_230 () Int)
(declare-fun x_231 () Bool)
(declare-fun x_232 () Int)
(declare-fun x_233 () Int)
(declare-fun x_234 () Int)
(declare-fun x_235 () Int)
(declare-fun x_236 () (Array Int Int))
(declare-fun x_237 () Int)
(declare-fun x_238 () Int)
(declare-fun x_239 () Int)
(declare-fun x_240 () Int)
(declare-fun x_241 () Int)
(declare-fun x_242 () (Array Int Int))
(declare-fun x_243 () Int)
(declare-fun x_244 () Bool)
(declare-fun x_245 () Int)
(declare-fun x_246 () Int)
(declare-fun x_247 () Int)
(declare-fun x_248 () Int)
(declare-fun x_249 () (Array Int Int))
(declare-fun x_250 () Int)
(declare-fun x_251 () Int)
(declare-fun x_252 () Int)
(declare-fun x_253 () Int)
(declare-fun x_254 () Int)
(declare-fun x_255 () (Array Int Int))
(declare-fun x_256 () Int)
(declare-fun x_257 () Bool)
(declare-fun x_258 () Int)
(declare-fun x_259 () Int)
(declare-fun x_260 () Int)
(declare-fun x_261 () Int)
(declare-fun x_262 () (Array Int Int))
(declare-fun x_263 () Int)
(declare-fun x_264 () Int)
(declare-fun x_265 () Int)
(declare-fun x_266 () Int)
(declare-fun x_267 () Int)
(declare-fun x_268 () Int)
(declare-fun x_269 () Int)
(declare-fun x_270 () Int)
(declare-fun x_271 () Int)
(declare-fun x_272 () Int)
(declare-fun x_273 () Int)
(declare-fun x_274 () Int)
(declare-fun x_275 () Int)
(declare-fun x_276 () Int)
(declare-fun x_277 () Int)
(declare-fun x_278 () Int)
(declare-fun x_279 () Int)
(declare-fun x_280 () Int)
(declare-fun x_281 () Int)
(declare-fun x_282 () Int)
(declare-fun x_283 () Int)
(declare-fun x_284 () Int)
(declare-fun x_285 () Int)
(declare-fun x_286 () Int)
(declare-fun x_287 () Int)
(declare-fun x_288 () Int)
(declare-fun x_289 () Int)
(declare-fun x_290 () Int)
(declare-fun x_291 () Int)
(declare-fun x_292 () Int)
(declare-fun x_293 () Int)
(declare-fun x_294 () Int)
(declare-fun x_295 () Int)
(declare-fun x_296 () Int)
(declare-fun x_297 () Int)
(declare-fun x_298 () Int)
(declare-fun x_299 () Int)
(declare-fun x_300 () Int)
(declare-fun x_301 () Int)
(declare-fun x_302 () Int)
(declare-fun x_303 () Int)
(declare-fun x_304 () Int)
(declare-fun x_305 () Int)
(declare-fun x_306 () Int)
(declare-fun x_307 () Int)
(declare-fun x_308 () Int)
(declare-fun x_309 () Int)
(declare-fun x_310 () Int)
(declare-fun x_311 () Int)
(declare-fun x_312 () Int)
(declare-fun x_313 () Int)
(declare-fun x_314 () Int)
(declare-fun x_315 () Int)
(declare-fun x_316 () Int)
(declare-fun x_317 () Int)
(declare-fun x_318 () Int)
(declare-fun x_319 () Int)
(declare-fun x_320 () Int)
(declare-fun x_321 () Int)
(declare-fun x_322 () Int)
(declare-fun x_323 () Int)
(declare-fun x_324 () Int)
(declare-fun x_325 () Int)
(declare-fun x_326 () Int)
(declare-fun x_327 () Int)
(declare-fun x_328 () Int)
(declare-fun x_329 () Int)
(declare-fun x_330 () Int)
(declare-fun x_331 () Int)
(declare-fun x_332 () Int)
(declare-fun x_333 () Int)
(declare-fun x_334 () Int)
(declare-fun x_335 () Int)
(declare-fun x_336 () Int)
(declare-fun x_337 () Int)
(declare-fun x_338 () Int)
(declare-fun x_339 () Int)
(declare-fun x_340 () Int)
(declare-fun x_341 () Int)
(declare-fun x_342 () Int)
(declare-fun x_343 () Int)
(declare-fun x_344 () Int)
(declare-fun x_345 () Int)
(declare-fun x_346 () Int)
(declare-fun x_347 () Int)
(declare-fun x_348 () Int)
(declare-fun x_349 () Int)
(declare-fun x_350 () Int)
(declare-fun x_351 () Int)
(declare-fun x_352 () Int)
(declare-fun x_353 () Int)
(declare-fun x_354 () Int)
(declare-fun x_355 () Int)
(declare-fun x_356 () Int)
(declare-fun x_357 () Int)
(declare-fun x_358 () Int)
(declare-fun x_359 () Int)
(declare-fun x_360 () Int)
(declare-fun x_361 () Int)
(declare-fun x_362 () Int)
(declare-fun x_363 () Int)
(declare-fun x_364 () Int)
(declare-fun x_365 () Int)
(declare-fun x_366 () Int)
(declare-fun x_367 () Int)
(declare-fun x_368 () Int)
(declare-fun x_369 () Int)
(declare-fun x_370 () Int)
(declare-fun x_371 () Int)
(declare-fun x_372 () Int)
(declare-fun x_373 () Int)
(declare-fun x_374 () Int)
(declare-fun x_375 () Int)
(declare-fun x_376 () Int)
(declare-fun x_377 () Int)
(declare-fun x_378 () Int)
(declare-fun x_379 () Int)
(declare-fun x_380 () Int)
(declare-fun x_381 () Int)
(declare-fun x_382 () Int)
(declare-fun x_383 () Int)
(declare-fun x_384 () Int)
(declare-fun x_385 () Int)
(declare-fun x_386 () Int)
(declare-fun x_387 () Int)
(declare-fun x_388 () Int)
(declare-fun x_389 () Int)
(declare-fun x_390 () Int)
(assert (let ((?v_98 (= x_8 x_6)) (?v_95 (= x_9 x_0)) (?v_96 (= x_10 x_5)) (?v_99 (= x_11 x_1)) (?v_97 (not (<= x_1 x_0))) (?v_93 (= x_21 x_8)) (?v_90 (= x_22 x_9)) (?v_91 (= x_23 x_10)) (?v_94 (= x_24 x_11)) (?v_92 (not (<= x_11 x_9))) (?v_88 (= x_34 x_21)) (?v_85 (= x_35 x_22)) (?v_86 (= x_36 x_23)) (?v_89 (= x_37 x_24)) (?v_87 (not (<= x_24 x_22))) (?v_83 (= x_47 x_34)) (?v_80 (= x_48 x_35)) (?v_81 (= x_49 x_36)) (?v_84 (= x_50 x_37)) (?v_82 (not (<= x_37 x_35))) (?v_78 (= x_60 x_47)) (?v_75 (= x_61 x_48)) (?v_76 (= x_62 x_49)) (?v_79 (= x_63 x_50)) (?v_77 (not (<= x_50 x_48))) (?v_73 (= x_73 x_60)) (?v_70 (= x_74 x_61)) (?v_71 (= x_75 x_62)) (?v_74 (= x_76 x_63)) (?v_72 (not (<= x_63 x_61))) (?v_68 (= x_86 x_73)) (?v_65 (= x_87 x_74)) (?v_66 (= x_88 x_75)) (?v_69 (= x_89 x_76)) (?v_67 (not (<= x_76 x_74))) (?v_63 (= x_99 x_86)) (?v_60 (= x_100 x_87)) (?v_61 (= x_101 x_88)) (?v_64 (= x_102 x_89)) (?v_62 (not (<= x_89 x_87))) (?v_58 (= x_112 x_99)) (?v_55 (= x_113 x_100)) (?v_56 (= x_114 x_101)) (?v_59 (= x_115 x_102)) (?v_57 (not (<= x_102 x_100))) (?v_53 (= x_125 x_112)) (?v_50 (= x_126 x_113)) (?v_51 (= x_127 x_114)) (?v_54 (= x_128 x_115)) (?v_52 (not (<= x_115 x_113))) (?v_48 (= x_138 x_125)) (?v_45 (= x_139 x_126)) (?v_46 (= x_140 x_127)) (?v_49 (= x_141 x_128)) (?v_47 (not (<= x_128 x_126))) (?v_43 (= x_151 x_138)) (?v_40 (= x_152 x_139)) (?v_41 (= x_153 x_140)) (?v_44 (= x_154 x_141)) (?v_42 (not (<= x_141 x_139))) (?v_38 (= x_164 x_151)) (?v_35 (= x_165 x_152)) (?v_36 (= x_166 x_153)) (?v_39 (= x_167 x_154)) (?v_37 (not (<= x_154 x_152))) (?v_33 (= x_177 x_164)) (?v_30 (= x_178 x_165)) (?v_31 (= x_179 x_166)) (?v_34 (= x_180 x_167)) (?v_32 (not (<= x_167 x_165))) (?v_28 (= x_190 x_177)) (?v_25 (= x_191 x_178)) (?v_26 (= x_192 x_179)) (?v_29 (= x_193 x_180)) (?v_27 (not (<= x_180 x_178))) (?v_23 (= x_203 x_190)) (?v_20 (= x_204 x_191)) (?v_21 (= x_205 x_192)) (?v_24 (= x_206 x_193)) (?v_22 (not (<= x_193 x_191))) (?v_18 (= x_216 x_203)) (?v_15 (= x_217 x_204)) (?v_16 (= x_218 x_205)) (?v_19 (= x_219 x_206)) (?v_17 (not (<= x_206 x_204))) (?v_13 (= x_229 x_216)) (?v_10 (= x_230 x_217)) (?v_11 (= x_231 x_218)) (?v_14 (= x_232 x_219)) (?v_12 (not (<= x_219 x_217))) (?v_8 (= x_242 x_229)) (?v_5 (= x_243 x_230)) (?v_6 (= x_244 x_231)) (?v_9 (= x_245 x_232)) (?v_7 (not (<= x_232 x_230))) (?v_3 (= x_255 x_242)) (?v_0 (= x_256 x_243)) (?v_1 (= x_257 x_244)) (?v_4 (= x_258 x_245)) (?v_2 (not (<= x_245 x_243))) (?v_100 (select x_2 x_3)) (?v_101 (select x_2 x_4))) (and (and (and (and (and (and (and (and (and (and (and (and (and (and (and (and (and (and (and (and (and (and (and (and (and (and (and (and (and (and (and (and (and (and (and (and (and (and (and (and (and (and (and (and (and (and (and (and (and (and (and (and (and (and (and (and (and (and (and (and (and (and (and (and (and (and (and (and (and (and (and (and (and (and (and (and (and (and (and (and (and (and (and (and (and (and (and (and (and (and (and (and (and (and (and (and (and (and (and (and (and (and (and (and (and (and (and (and (and (and (and (and (and (and (and (and (and (and (and (and (and (and (and (and (and (and (and (and (and (and (and (and (and (and (and (and (and (and (and (and (and (and (and (and (and (and (and (and (and (and (and (and (and (and (and (and (and (and (and (and (and (and (and (and (and (and (and (and (and (and (not (= x_4 x_3)) (= x_0 0)) (= x_1 0)) (= x_267 ?v_100)) (= x_267 1)) (= x_268 ?v_101)) (= x_268 1)) x_5) (= x_269 (select x_6 x_0))) (= x_7 x_269)) (= x_270 (select x_8 x_9))) (= x_20 x_270)) (= x_271 (select x_21 x_22))) (= x_33 x_271)) (= x_272 (select x_34 x_35))) (= x_46 x_272)) (= x_273 (select x_47 x_48))) (= x_59 x_273)) (= x_274 (select x_60 x_61))) (= x_72 x_274)) (= x_275 (select x_73 x_74))) (= x_85 x_275)) (= x_276 (select x_86 x_87))) (= x_98 x_276)) (= x_277 (select x_99 x_100))) (= x_111 x_277)) (= x_278 (select x_112 x_113))) (= x_124 x_278)) (= x_279 (select x_125 x_126))) (= x_137 x_279)) (= x_280 (select x_138 x_139))) (= x_150 x_280)) (= x_281 (select x_151 x_152))) (= x_163 x_281)) (= x_282 (select x_164 x_165))) (= x_176 x_282)) (= x_283 (select x_177 x_178))) (= x_189 x_283)) (= x_284 (select x_190 x_191))) (= x_202 x_284)) (= x_285 (select x_203 x_204))) (= x_215 x_285)) (= x_286 (select x_216 x_217))) (= x_228 x_286)) (= x_287 (select x_229 x_230))) (= x_241 x_287)) (= x_288 (select x_242 x_243))) (= x_254 x_288)) (= x_289 (select x_249 x_260))) (= x_290 (select x_249 x_263))) (= x_291 (select x_249 x_265))) (or (or (or (and (and (and (and (and (and (and (= x_259 0) (= x_258 (+ x_245 1))) ?v_0) ?v_1) (= x_261 x_260)) (= x_289 1)) (= x_262 (store x_249 x_260 2))) (= x_255 (store x_242 x_245 x_260))) (and (and (and (and (and (and (and (and (and (= x_259 1) ?v_2) ?v_0) ?v_1) ?v_3) ?v_4) (= x_264 x_263)) (= x_290 2)) (= x_254 x_263)) (= x_262 (store x_249 x_263 3)))) (and (and (and (and (and (and (and (and (and (= x_259 2) ?v_2) (= x_256 (+ x_243 1))) ?v_1) ?v_3) ?v_4) (= x_266 x_265)) (= x_291 3)) (= x_254 x_265)) (= x_262 (store x_249 x_265 1)))) (and (and (and (and (and (= x_259 3) ?v_3) ?v_0) ?v_1) (= x_262 x_249)) ?v_4))) (= x_292 (select x_236 x_247))) (= x_293 (select x_236 x_250))) (= x_294 (select x_236 x_252))) (or (or (or (and (and (and (and (and (and (and (= x_246 0) (= x_245 (+ x_232 1))) ?v_5) ?v_6) (= x_248 x_247)) (= x_292 1)) (= x_249 (store x_236 x_247 2))) (= x_242 (store x_229 x_232 x_247))) (and (and (and (and (and (and (and (and (and (= x_246 1) ?v_7) ?v_5) ?v_6) ?v_8) ?v_9) (= x_251 x_250)) (= x_293 2)) (= x_241 x_250)) (= x_249 (store x_236 x_250 3)))) (and (and (and (and (and (and (and (and (and (= x_246 2) ?v_7) (= x_243 (+ x_230 1))) ?v_6) ?v_8) ?v_9) (= x_253 x_252)) (= x_294 3)) (= x_241 x_252)) (= x_249 (store x_236 x_252 1)))) (and (and (and (and (and (= x_246 3) ?v_8) ?v_5) ?v_6) (= x_249 x_236)) ?v_9))) (= x_295 (select x_223 x_234))) (= x_296 (select x_223 x_237))) (= x_297 (select x_223 x_239))) (or (or (or (and (and (and (and (and (and (and (= x_233 0) (= x_232 (+ x_219 1))) ?v_10) ?v_11) (= x_235 x_234)) (= x_295 1)) (= x_236 (store x_223 x_234 2))) (= x_229 (store x_216 x_219 x_234))) (and (and (and (and (and (and (and (and (and (= x_233 1) ?v_12) ?v_10) ?v_11) ?v_13) ?v_14) (= x_238 x_237)) (= x_296 2)) (= x_228 x_237)) (= x_236 (store x_223 x_237 3)))) (and (and (and (and (and (and (and (and (and (= x_233 2) ?v_12) (= x_230 (+ x_217 1))) ?v_11) ?v_13) ?v_14) (= x_240 x_239)) (= x_297 3)) (= x_228 x_239)) (= x_236 (store x_223 x_239 1)))) (and (and (and (and (and (= x_233 3) ?v_13) ?v_10) ?v_11) (= x_236 x_223)) ?v_14))) (= x_298 (select x_210 x_221))) (= x_299 (select x_210 x_224))) (= x_300 (select x_210 x_226))) (or (or (or (and (and (and (and (and (and (and (= x_220 0) (= x_219 (+ x_206 1))) ?v_15) ?v_16) (= x_222 x_221)) (= x_298 1)) (= x_223 (store x_210 x_221 2))) (= x_216 (store x_203 x_206 x_221))) (and (and (and (and (and (and (and (and (and (= x_220 1) ?v_17) ?v_15) ?v_16) ?v_18) ?v_19) (= x_225 x_224)) (= x_299 2)) (= x_215 x_224)) (= x_223 (store x_210 x_224 3)))) (and (and (and (and (and (and (and (and (and (= x_220 2) ?v_17) (= x_217 (+ x_204 1))) ?v_16) ?v_18) ?v_19) (= x_227 x_226)) (= x_300 3)) (= x_215 x_226)) (= x_223 (store x_210 x_226 1)))) (and (and (and (and (and (= x_220 3) ?v_18) ?v_15) ?v_16) (= x_223 x_210)) ?v_19))) (= x_301 (select x_197 x_208))) (= x_302 (select x_197 x_211))) (= x_303 (select x_197 x_213))) (or (or (or (and (and (and (and (and (and (and (= x_207 0) (= x_206 (+ x_193 1))) ?v_20) ?v_21) (= x_209 x_208)) (= x_301 1)) (= x_210 (store x_197 x_208 2))) (= x_203 (store x_190 x_193 x_208))) (and (and (and (and (and (and (and (and (and (= x_207 1) ?v_22) ?v_20) ?v_21) ?v_23) ?v_24) (= x_212 x_211)) (= x_302 2)) (= x_202 x_211)) (= x_210 (store x_197 x_211 3)))) (and (and (and (and (and (and (and (and (and (= x_207 2) ?v_22) (= x_204 (+ x_191 1))) ?v_21) ?v_23) ?v_24) (= x_214 x_213)) (= x_303 3)) (= x_202 x_213)) (= x_210 (store x_197 x_213 1)))) (and (and (and (and (and (= x_207 3) ?v_23) ?v_20) ?v_21) (= x_210 x_197)) ?v_24))) (= x_304 (select x_184 x_195))) (= x_305 (select x_184 x_198))) (= x_306 (select x_184 x_200))) (or (or (or (and (and (and (and (and (and (and (= x_194 0) (= x_193 (+ x_180 1))) ?v_25) ?v_26) (= x_196 x_195)) (= x_304 1)) (= x_197 (store x_184 x_195 2))) (= x_190 (store x_177 x_180 x_195))) (and (and (and (and (and (and (and (and (and (= x_194 1) ?v_27) ?v_25) ?v_26) ?v_28) ?v_29) (= x_199 x_198)) (= x_305 2)) (= x_189 x_198)) (= x_197 (store x_184 x_198 3)))) (and (and (and (and (and (and (and (and (and (= x_194 2) ?v_27) (= x_191 (+ x_178 1))) ?v_26) ?v_28) ?v_29) (= x_201 x_200)) (= x_306 3)) (= x_189 x_200)) (= x_197 (store x_184 x_200 1)))) (and (and (and (and (and (= x_194 3) ?v_28) ?v_25) ?v_26) (= x_197 x_184)) ?v_29))) (= x_307 (select x_171 x_182))) (= x_308 (select x_171 x_185))) (= x_309 (select x_171 x_187))) (or (or (or (and (and (and (and (and (and (and (= x_181 0) (= x_180 (+ x_167 1))) ?v_30) ?v_31) (= x_183 x_182)) (= x_307 1)) (= x_184 (store x_171 x_182 2))) (= x_177 (store x_164 x_167 x_182))) (and (and (and (and (and (and (and (and (and (= x_181 1) ?v_32) ?v_30) ?v_31) ?v_33) ?v_34) (= x_186 x_185)) (= x_308 2)) (= x_176 x_185)) (= x_184 (store x_171 x_185 3)))) (and (and (and (and (and (and (and (and (and (= x_181 2) ?v_32) (= x_178 (+ x_165 1))) ?v_31) ?v_33) ?v_34) (= x_188 x_187)) (= x_309 3)) (= x_176 x_187)) (= x_184 (store x_171 x_187 1)))) (and (and (and (and (and (= x_181 3) ?v_33) ?v_30) ?v_31) (= x_184 x_171)) ?v_34))) (= x_310 (select x_158 x_169))) (= x_311 (select x_158 x_172))) (= x_312 (select x_158 x_174))) (or (or (or (and (and (and (and (and (and (and (= x_168 0) (= x_167 (+ x_154 1))) ?v_35) ?v_36) (= x_170 x_169)) (= x_310 1)) (= x_171 (store x_158 x_169 2))) (= x_164 (store x_151 x_154 x_169))) (and (and (and (and (and (and (and (and (and (= x_168 1) ?v_37) ?v_35) ?v_36) ?v_38) ?v_39) (= x_173 x_172)) (= x_311 2)) (= x_163 x_172)) (= x_171 (store x_158 x_172 3)))) (and (and (and (and (and (and (and (and (and (= x_168 2) ?v_37) (= x_165 (+ x_152 1))) ?v_36) ?v_38) ?v_39) (= x_175 x_174)) (= x_312 3)) (= x_163 x_174)) (= x_171 (store x_158 x_174 1)))) (and (and (and (and (and (= x_168 3) ?v_38) ?v_35) ?v_36) (= x_171 x_158)) ?v_39))) (= x_313 (select x_145 x_156))) (= x_314 (select x_145 x_159))) (= x_315 (select x_145 x_161))) (or (or (or (and (and (and (and (and (and (and (= x_155 0) (= x_154 (+ x_141 1))) ?v_40) ?v_41) (= x_157 x_156)) (= x_313 1)) (= x_158 (store x_145 x_156 2))) (= x_151 (store x_138 x_141 x_156))) (and (and (and (and (and (and (and (and (and (= x_155 1) ?v_42) ?v_40) ?v_41) ?v_43) ?v_44) (= x_160 x_159)) (= x_314 2)) (= x_150 x_159)) (= x_158 (store x_145 x_159 3)))) (and (and (and (and (and (and (and (and (and (= x_155 2) ?v_42) (= x_152 (+ x_139 1))) ?v_41) ?v_43) ?v_44) (= x_162 x_161)) (= x_315 3)) (= x_150 x_161)) (= x_158 (store x_145 x_161 1)))) (and (and (and (and (and (= x_155 3) ?v_43) ?v_40) ?v_41) (= x_158 x_145)) ?v_44))) (= x_316 (select x_132 x_143))) (= x_317 (select x_132 x_146))) (= x_318 (select x_132 x_148))) (or (or (or (and (and (and (and (and (and (and (= x_142 0) (= x_141 (+ x_128 1))) ?v_45) ?v_46) (= x_144 x_143)) (= x_316 1)) (= x_145 (store x_132 x_143 2))) (= x_138 (store x_125 x_128 x_143))) (and (and (and (and (and (and (and (and (and (= x_142 1) ?v_47) ?v_45) ?v_46) ?v_48) ?v_49) (= x_147 x_146)) (= x_317 2)) (= x_137 x_146)) (= x_145 (store x_132 x_146 3)))) (and (and (and (and (and (and (and (and (and (= x_142 2) ?v_47) (= x_139 (+ x_126 1))) ?v_46) ?v_48) ?v_49) (= x_149 x_148)) (= x_318 3)) (= x_137 x_148)) (= x_145 (store x_132 x_148 1)))) (and (and (and (and (and (= x_142 3) ?v_48) ?v_45) ?v_46) (= x_145 x_132)) ?v_49))) (= x_319 (select x_119 x_130))) (= x_320 (select x_119 x_133))) (= x_321 (select x_119 x_135))) (or (or (or (and (and (and (and (and (and (and (= x_129 0) (= x_128 (+ x_115 1))) ?v_50) ?v_51) (= x_131 x_130)) (= x_319 1)) (= x_132 (store x_119 x_130 2))) (= x_125 (store x_112 x_115 x_130))) (and (and (and (and (and (and (and (and (and (= x_129 1) ?v_52) ?v_50) ?v_51) ?v_53) ?v_54) (= x_134 x_133)) (= x_320 2)) (= x_124 x_133)) (= x_132 (store x_119 x_133 3)))) (and (and (and (and (and (and (and (and (and (= x_129 2) ?v_52) (= x_126 (+ x_113 1))) ?v_51) ?v_53) ?v_54) (= x_136 x_135)) (= x_321 3)) (= x_124 x_135)) (= x_132 (store x_119 x_135 1)))) (and (and (and (and (and (= x_129 3) ?v_53) ?v_50) ?v_51) (= x_132 x_119)) ?v_54))) (= x_322 (select x_106 x_117))) (= x_323 (select x_106 x_120))) (= x_324 (select x_106 x_122))) (or (or (or (and (and (and (and (and (and (and (= x_116 0) (= x_115 (+ x_102 1))) ?v_55) ?v_56) (= x_118 x_117)) (= x_322 1)) (= x_119 (store x_106 x_117 2))) (= x_112 (store x_99 x_102 x_117))) (and (and (and (and (and (and (and (and (and (= x_116 1) ?v_57) ?v_55) ?v_56) ?v_58) ?v_59) (= x_121 x_120)) (= x_323 2)) (= x_111 x_120)) (= x_119 (store x_106 x_120 3)))) (and (and (and (and (and (and (and (and (and (= x_116 2) ?v_57) (= x_113 (+ x_100 1))) ?v_56) ?v_58) ?v_59) (= x_123 x_122)) (= x_324 3)) (= x_111 x_122)) (= x_119 (store x_106 x_122 1)))) (and (and (and (and (and (= x_116 3) ?v_58) ?v_55) ?v_56) (= x_119 x_106)) ?v_59))) (= x_325 (select x_93 x_104))) (= x_326 (select x_93 x_107))) (= x_327 (select x_93 x_109))) (or (or (or (and (and (and (and (and (and (and (= x_103 0) (= x_102 (+ x_89 1))) ?v_60) ?v_61) (= x_105 x_104)) (= x_325 1)) (= x_106 (store x_93 x_104 2))) (= x_99 (store x_86 x_89 x_104))) (and (and (and (and (and (and (and (and (and (= x_103 1) ?v_62) ?v_60) ?v_61) ?v_63) ?v_64) (= x_108 x_107)) (= x_326 2)) (= x_98 x_107)) (= x_106 (store x_93 x_107 3)))) (and (and (and (and (and (and (and (and (and (= x_103 2) ?v_62) (= x_100 (+ x_87 1))) ?v_61) ?v_63) ?v_64) (= x_110 x_109)) (= x_327 3)) (= x_98 x_109)) (= x_106 (store x_93 x_109 1)))) (and (and (and (and (and (= x_103 3) ?v_63) ?v_60) ?v_61) (= x_106 x_93)) ?v_64))) (= x_328 (select x_80 x_91))) (= x_329 (select x_80 x_94))) (= x_330 (select x_80 x_96))) (or (or (or (and (and (and (and (and (and (and (= x_90 0) (= x_89 (+ x_76 1))) ?v_65) ?v_66) (= x_92 x_91)) (= x_328 1)) (= x_93 (store x_80 x_91 2))) (= x_86 (store x_73 x_76 x_91))) (and (and (and (and (and (and (and (and (and (= x_90 1) ?v_67) ?v_65) ?v_66) ?v_68) ?v_69) (= x_95 x_94)) (= x_329 2)) (= x_85 x_94)) (= x_93 (store x_80 x_94 3)))) (and (and (and (and (and (and (and (and (and (= x_90 2) ?v_67) (= x_87 (+ x_74 1))) ?v_66) ?v_68) ?v_69) (= x_97 x_96)) (= x_330 3)) (= x_85 x_96)) (= x_93 (store x_80 x_96 1)))) (and (and (and (and (and (= x_90 3) ?v_68) ?v_65) ?v_66) (= x_93 x_80)) ?v_69))) (= x_331 (select x_67 x_78))) (= x_332 (select x_67 x_81))) (= x_333 (select x_67 x_83))) (or (or (or (and (and (and (and (and (and (and (= x_77 0) (= x_76 (+ x_63 1))) ?v_70) ?v_71) (= x_79 x_78)) (= x_331 1)) (= x_80 (store x_67 x_78 2))) (= x_73 (store x_60 x_63 x_78))) (and (and (and (and (and (and (and (and (and (= x_77 1) ?v_72) ?v_70) ?v_71) ?v_73) ?v_74) (= x_82 x_81)) (= x_332 2)) (= x_72 x_81)) (= x_80 (store x_67 x_81 3)))) (and (and (and (and (and (and (and (and (and (= x_77 2) ?v_72) (= x_74 (+ x_61 1))) ?v_71) ?v_73) ?v_74) (= x_84 x_83)) (= x_333 3)) (= x_72 x_83)) (= x_80 (store x_67 x_83 1)))) (and (and (and (and (and (= x_77 3) ?v_73) ?v_70) ?v_71) (= x_80 x_67)) ?v_74))) (= x_334 (select x_54 x_65))) (= x_335 (select x_54 x_68))) (= x_336 (select x_54 x_70))) (or (or (or (and (and (and (and (and (and (and (= x_64 0) (= x_63 (+ x_50 1))) ?v_75) ?v_76) (= x_66 x_65)) (= x_334 1)) (= x_67 (store x_54 x_65 2))) (= x_60 (store x_47 x_50 x_65))) (and (and (and (and (and (and (and (and (and (= x_64 1) ?v_77) ?v_75) ?v_76) ?v_78) ?v_79) (= x_69 x_68)) (= x_335 2)) (= x_59 x_68)) (= x_67 (store x_54 x_68 3)))) (and (and (and (and (and (and (and (and (and (= x_64 2) ?v_77) (= x_61 (+ x_48 1))) ?v_76) ?v_78) ?v_79) (= x_71 x_70)) (= x_336 3)) (= x_59 x_70)) (= x_67 (store x_54 x_70 1)))) (and (and (and (and (and (= x_64 3) ?v_78) ?v_75) ?v_76) (= x_67 x_54)) ?v_79))) (= x_337 (select x_41 x_52))) (= x_338 (select x_41 x_55))) (= x_339 (select x_41 x_57))) (or (or (or (and (and (and (and (and (and (and (= x_51 0) (= x_50 (+ x_37 1))) ?v_80) ?v_81) (= x_53 x_52)) (= x_337 1)) (= x_54 (store x_41 x_52 2))) (= x_47 (store x_34 x_37 x_52))) (and (and (and (and (and (and (and (and (and (= x_51 1) ?v_82) ?v_80) ?v_81) ?v_83) ?v_84) (= x_56 x_55)) (= x_338 2)) (= x_46 x_55)) (= x_54 (store x_41 x_55 3)))) (and (and (and (and (and (and (and (and (and (= x_51 2) ?v_82) (= x_48 (+ x_35 1))) ?v_81) ?v_83) ?v_84) (= x_58 x_57)) (= x_339 3)) (= x_46 x_57)) (= x_54 (store x_41 x_57 1)))) (and (and (and (and (and (= x_51 3) ?v_83) ?v_80) ?v_81) (= x_54 x_41)) ?v_84))) (= x_340 (select x_28 x_39))) (= x_341 (select x_28 x_42))) (= x_342 (select x_28 x_44))) (or (or (or (and (and (and (and (and (and (and (= x_38 0) (= x_37 (+ x_24 1))) ?v_85) ?v_86) (= x_40 x_39)) (= x_340 1)) (= x_41 (store x_28 x_39 2))) (= x_34 (store x_21 x_24 x_39))) (and (and (and (and (and (and (and (and (and (= x_38 1) ?v_87) ?v_85) ?v_86) ?v_88) ?v_89) (= x_43 x_42)) (= x_341 2)) (= x_33 x_42)) (= x_41 (store x_28 x_42 3)))) (and (and (and (and (and (and (and (and (and (= x_38 2) ?v_87) (= x_35 (+ x_22 1))) ?v_86) ?v_88) ?v_89) (= x_45 x_44)) (= x_342 3)) (= x_33 x_44)) (= x_41 (store x_28 x_44 1)))) (and (and (and (and (and (= x_38 3) ?v_88) ?v_85) ?v_86) (= x_41 x_28)) ?v_89))) (= x_343 (select x_15 x_26))) (= x_344 (select x_15 x_29))) (= x_345 (select x_15 x_31))) (or (or (or (and (and (and (and (and (and (and (= x_25 0) (= x_24 (+ x_11 1))) ?v_90) ?v_91) (= x_27 x_26)) (= x_343 1)) (= x_28 (store x_15 x_26 2))) (= x_21 (store x_8 x_11 x_26))) (and (and (and (and (and (and (and (and (and (= x_25 1) ?v_92) ?v_90) ?v_91) ?v_93) ?v_94) (= x_30 x_29)) (= x_344 2)) (= x_20 x_29)) (= x_28 (store x_15 x_29 3)))) (and (and (and (and (and (and (and (and (and (= x_25 2) ?v_92) (= x_22 (+ x_9 1))) ?v_91) ?v_93) ?v_94) (= x_32 x_31)) (= x_345 3)) (= x_20 x_31)) (= x_28 (store x_15 x_31 1)))) (and (and (and (and (and (= x_25 3) ?v_93) ?v_90) ?v_91) (= x_28 x_15)) ?v_94))) (= x_346 (select x_2 x_13))) (= x_347 (select x_2 x_16))) (= x_348 (select x_2 x_18))) (or (or (or (and (and (and (and (and (and (and (= x_12 0) (= x_11 (+ x_1 1))) ?v_95) ?v_96) (= x_14 x_13)) (= x_346 1)) (= x_15 (store x_2 x_13 2))) (= x_8 (store x_6 x_1 x_13))) (and (and (and (and (and (and (and (and (and (= x_12 1) ?v_97) ?v_95) ?v_96) ?v_98) ?v_99) (= x_17 x_16)) (= x_347 2)) (= x_7 x_16)) (= x_15 (store x_2 x_16 3)))) (and (and (and (and (and (and (and (and (and (= x_12 2) ?v_97) (= x_9 (+ x_0 1))) ?v_96) ?v_98) ?v_99) (= x_19 x_18)) (= x_348 3)) (= x_7 x_18)) (= x_15 (store x_2 x_18 1)))) (and (and (and (and (and (= x_12 3) ?v_98) ?v_95) ?v_96) (= x_15 x_2)) ?v_99))) (= x_349 (select x_262 x_3))) (= x_350 (select x_262 x_4))) (= x_351 (select x_249 x_3))) (= x_352 (select x_249 x_4))) (= x_353 (select x_236 x_3))) (= x_354 (select x_236 x_4))) (= x_355 (select x_223 x_3))) (= x_356 (select x_223 x_4))) (= x_357 (select x_210 x_3))) (= x_358 (select x_210 x_4))) (= x_359 (select x_197 x_3))) (= x_360 (select x_197 x_4))) (= x_361 (select x_184 x_3))) (= x_362 (select x_184 x_4))) (= x_363 (select x_171 x_3))) (= x_364 (select x_171 x_4))) (= x_365 (select x_158 x_3))) (= x_366 (select x_158 x_4))) (= x_367 (select x_145 x_3))) (= x_368 (select x_145 x_4))) (= x_369 (select x_132 x_3))) (= x_370 (select x_132 x_4))) (= x_371 (select x_119 x_3))) (= x_372 (select x_119 x_4))) (= x_373 (select x_106 x_3))) (= x_374 (select x_106 x_4))) (= x_375 (select x_93 x_3))) (= x_376 (select x_93 x_4))) (= x_377 (select x_80 x_3))) (= x_378 (select x_80 x_4))) (= x_379 (select x_67 x_3))) (= x_380 (select x_67 x_4))) (= x_381 (select x_54 x_3))) (= x_382 (select x_54 x_4))) (= x_383 (select x_41 x_3))) (= x_384 (select x_41 x_4))) (= x_385 (select x_28 x_3))) (= x_386 (select x_28 x_4))) (= x_387 (select x_15 x_3))) (= x_388 (select x_15 x_4))) (= x_389 ?v_100)) (= x_390 ?v_101)) (or (or (or (or (or (or (or (or (or (or (or (or (or (or (or (or (or (or (or (or (and (= x_349 3) (= x_350 3)) (and (= x_351 3) (= x_352 3))) (and (= x_353 3) (= x_354 3))) (and (= x_355 3) (= x_356 3))) (and (= x_357 3) (= x_358 3))) (and (= x_359 3) (= x_360 3))) (and (= x_361 3) (= x_362 3))) (and (= x_363 3) (= x_364 3))) (and (= x_365 3) (= x_366 3))) (and (= x_367 3) (= x_368 3))) (and (= x_369 3) (= x_370 3))) (and (= x_371 3) (= x_372 3))) (and (= x_373 3) (= x_374 3))) (and (= x_375 3) (= x_376 3))) (and (= x_377 3) (= x_378 3))) (and (= x_379 3) (= x_380 3))) (and (= x_381 3) (= x_382 3))) (and (= x_383 3) (= x_384 3))) (and (= x_385 3) (= x_386 3))) (and (= x_387 3) (= x_388 3))) (and (= x_389 3) (= x_390 3))))))
(check-sat)
(exit)
